Route #1: 3 86 91 93 75 103 64 66
Route #2: 15 89 88 52 27
Route #3: 78 50 20 119 53 123 70 74 127
Route #4: 24 47 38 118 28
Route #5: 90 44 18 59 1 23
Route #6: 113 82 124 9 19 54
Route #7: 63 87 121 94 4 98 68 80
Route #8: 5 106 117 14 125 31 97
Route #9: 67 39 43 30 62 56
Route #10: 115 122 128 107 81
Route #11: 83 109 51 120 69 42 99 102 32 16
Route #12: 7 6 22 45 29
Route #13: 111 36 26 126 71 108
Route #14: 84 25 77 35 13 46 33 21
Route #15: 60 57 34 2 48 58 101
Route #16: 8 37 12 114 112
Route #17: 72 100 73 49 92 116
Route #18: 110 17 65 105 11 85 76 79 10
Route #19: 96 95 104 61 41 40
Route #20: 55
cost: 35624
